(set-info :source |printed by MathSAT|)
(declare-fun call_always_from_to.call_always_since.call_after.afterA () Bool)
(declare-fun do_BC () Bool)
(declare-fun call_Sofar.Sofar () Bool)
(declare-fun call_edge4.flby () Bool)
(declare-fun call_always_from_to2.call_once_since.call_after.flby () Bool)
(declare-fun empty_section () Bool)
(declare-fun call_Sofar.flby () Bool)
(declare-fun call_always_from_to4.call_after.afterA () Bool)
(declare-fun param_on_B () Bool)
(declare-fun call_implies2.AimpliesB () Bool)
(declare-fun call_always_from_to4.call_always_since.ite2 () Bool)
(declare-fun call_edge3.flby () Bool)
(declare-fun call_always_from_to4.call_implies.AimpliesB () Bool)
(declare-fun do_AB () Bool)
(declare-fun call_always_from_to4.call_once_since.call_after.flby () Bool)
(declare-fun call_always_from_to2.call_implies.AimpliesB () Bool)
(declare-fun param2 () Bool)
(declare-fun flby2 () Bool)
(declare-fun call_always_from_to2._X_ () Bool)
(declare-fun call__UMS_.do_AB () Bool)
(declare-fun call_implies.AimpliesB () Bool)
(declare-fun call_always_from_to.call_once_since.call_after.afterA () Bool)
(declare-fun call_edge2._Y_ () Bool)
(declare-fun call_always_from_to2.call_once_since.ite2 () Bool)
(declare-fun param_on_C () Bool)
(declare-fun call_always_from_to.call_always_since.call_after.flby () Bool)
(declare-fun param_ack_BC () Bool)
(declare-fun call__UMS_.do_BC () Bool)
(declare-fun call_always_from_to2.call_always_since.call_after.flby () Bool)
(declare-fun call_edge._Y_ () Bool)
(declare-fun call_always_from_to.call_after.flby () Bool)
(declare-fun call_always_from_to4.call_once_since.ite2 () Bool)
(declare-fun call_always_from_to4.call_always_since.call_after.flby () Bool)
(declare-fun no_derail_BC () Bool)
(declare-fun call_always_from_to3.call_after.flby () Bool)
(declare-fun call_always_from_to.call_always_since.ite () Bool)
(declare-fun call__UMS_.empty_section () Bool)
(declare-fun call_implies4.AimpliesB () Bool)
(declare-fun no_derail_AB () Bool)
(declare-fun call_always_from_to3.call_once_since.ite2 () Bool)
(declare-fun grant_access () Bool)
(declare-fun call_always_from_to._X_ () Bool)
(declare-fun flby () Bool)
(declare-fun call_always_from_to3.call_always_since.ite2 () Bool)
(declare-fun call_implies3.AimpliesB () Bool)
(declare-fun call_edge4._Y_ () Bool)
(declare-fun call_always_from_to4.call_after.flby () Bool)
(declare-fun call_always_from_to2.call_after.afterA () Bool)
(declare-fun call_always_from_to3.call_once_since.call_after.afterA () Bool)
(declare-fun call_always_from_to2.call_always_since.ite2 () Bool)
(declare-fun call__UMS_.grant_exit () Bool)
(declare-fun grant_exit () Bool)
(declare-fun call_always_from_to.call_always_since.ite2 () Bool)
(declare-fun call_edge3._Y_ () Bool)
(declare-fun call_always_from_to.call_once_since.ite () Bool)
(declare-fun call_always_from_to.call_once_since.onceCsinceA () Bool)
(declare-fun _OK_ () Bool)
(declare-fun call_always_from_to4._X_ () Bool)
(declare-fun call_always_from_to2.call_always_since.call_after.afterA () Bool)
(declare-fun param_on_A () Bool)
(declare-fun call_always_from_to2.call_once_since.onceCsinceA () Bool)
(declare-fun call_always_from_to3.call_implies.AimpliesB () Bool)
(declare-fun param_ack_AB () Bool)
(declare-fun call_always_from_to.call_once_since.ite2 () Bool)
(declare-fun call_always_from_to3.call_always_since.call_after.flby () Bool)
(declare-fun call_always_from_to2.call_after.flby () Bool)
(declare-fun call_always_from_to3.call_once_since.ite () Bool)
(declare-fun call_always_from_to4.call_always_since.call_after.afterA () Bool)
(declare-fun call_always_from_to.call_always_since.alwaysBsinceA () Bool)
(declare-fun call_implies5.AimpliesB () Bool)
(declare-fun call_always_from_to4.call_once_since.onceCsinceA () Bool)
(declare-fun call_always_from_to2.call_once_since.ite () Bool)
(declare-fun call_always_from_to3.call_always_since.alwaysBsinceA () Bool)
(declare-fun call_edge2.flby () Bool)
(declare-fun only_on_B () Bool)
(declare-fun call_always_from_to4.call_always_since.ite () Bool)
(declare-fun call_always_from_to4.call_once_since.ite () Bool)
(declare-fun call_always_from_to3.call_once_since.call_after.flby () Bool)
(declare-fun param () Bool)
(declare-fun call_always_from_to.call_once_since.call_after.flby () Bool)
(declare-fun call_always_from_to3.call_once_since.onceCsinceA () Bool)
(declare-fun exclusive_req () Bool)
(declare-fun call_always_from_to3.call_always_since.ite () Bool)
(declare-fun call__UMS_.only_on_B () Bool)
(declare-fun call_edge.flby () Bool)
(declare-fun call_always_from_to.call_implies.AimpliesB () Bool)
(declare-fun env () Bool)
(declare-fun call_always_from_to2.call_once_since.call_after.afterA () Bool)
(declare-fun flby3 () Bool)
(declare-fun call__UMS_.grant_access () Bool)
(declare-fun call_always_from_to.call_after.afterA () Bool)
(declare-fun call_always_from_to4.call_always_since.alwaysBsinceA () Bool)
(declare-fun call_always_from_to2.call_always_since.alwaysBsinceA () Bool)
(declare-fun call_always_from_to4.call_once_since.call_after.afterA () Bool)
(declare-fun no_collision () Bool)
(declare-fun call_always_from_to3._X_ () Bool)
(declare-fun call_always_from_to2.call_always_since.ite () Bool)
(declare-fun call_always_from_to3.call_after.afterA () Bool)
(declare-fun call_always_from_to3.call_always_since.call_after.afterA () Bool)
(define-fun .def_1168 () Bool (not call_always_from_to4.call_once_since.call_after.flby))
(define-fun .def_1166 () Bool (or call_always_from_to4.call_once_since.ite call_always_from_to4.call_once_since.call_after.afterA))
(define-fun .def_1164 () Bool (not call_always_from_to4.call_always_since.call_after.flby))
(define-fun .def_1162 () Bool (or call_always_from_to4.call_always_since.ite call_always_from_to4.call_always_since.call_after.afterA))
(define-fun .def_1160 () Bool (not call_always_from_to4.call_after.flby))
(define-fun .def_1158 () Bool (not call_always_from_to3.call_once_since.call_after.flby))
(define-fun .def_1156 () Bool (or call_always_from_to3.call_once_since.ite call_always_from_to3.call_once_since.call_after.afterA))
(define-fun .def_1154 () Bool (not call_always_from_to3.call_always_since.call_after.flby))
(define-fun .def_1152 () Bool (or call_always_from_to3.call_always_since.ite call_always_from_to3.call_always_since.call_after.afterA))
(define-fun .def_1150 () Bool (not call_always_from_to3.call_after.flby))
(define-fun .def_1139 () Bool (and param_ack_BC param_ack_AB))
(define-fun .def_1140 () Bool (not .def_1139))
(define-fun .def_1141 () Bool (and call_always_from_to._X_ .def_1140))
(define-fun .def_1142 () Bool (and call_always_from_to2._X_ .def_1141))
(define-fun .def_1143 () Bool (and flby .def_1142))
(define-fun .def_1144 () Bool (and flby2 .def_1143))
(define-fun .def_1145 () Bool (and flby3 .def_1144))
(define-fun .def_1146 () Bool (and call_implies3.AimpliesB .def_1145))
(define-fun .def_1147 () Bool (and call_implies4.AimpliesB .def_1146))
(define-fun .def_1148 () Bool (= call_Sofar.flby .def_1147))
(define-fun .def_1136 () Bool (not param_on_B))
(define-fun .def_1137 () Bool (= call_edge4.flby .def_1136))
(define-fun .def_1133 () Bool (not param_on_A))
(define-fun .def_1134 () Bool (= call_edge3.flby .def_1133))
(define-fun .def_1131 () Bool (= param_on_C call_edge2.flby))
(define-fun .def_1128 () Bool (not empty_section))
(define-fun .def_1129 () Bool (= call_edge.flby .def_1128))
(define-fun .def_1126 () Bool (not call_always_from_to2.call_once_since.call_after.flby))
(define-fun .def_1124 () Bool (or call_always_from_to2.call_once_since.ite call_always_from_to2.call_once_since.call_after.afterA))
(define-fun .def_1122 () Bool (not call_always_from_to2.call_always_since.call_after.flby))
(define-fun .def_1120 () Bool (or call_always_from_to2.call_always_since.ite call_always_from_to2.call_always_since.call_after.afterA))
(define-fun .def_1118 () Bool (not call_always_from_to2.call_after.flby))
(define-fun .def_1116 () Bool (not call_always_from_to.call_once_since.call_after.flby))
(define-fun .def_1114 () Bool (or call_always_from_to.call_once_since.ite call_always_from_to.call_once_since.call_after.afterA))
(define-fun .def_1112 () Bool (not call_always_from_to.call_always_since.call_after.flby))
(define-fun .def_1109 () Bool (not call_always_from_to.call_after.flby))
(define-fun .def_1104 () Bool (= empty_section flby))
(define-fun .def_1106 () Bool (and .def_1104 flby2))
(define-fun .def_1108 () Bool (and .def_1106 flby3))
(define-fun .def_1110 () Bool (and .def_1108 .def_1109))
(define-fun .def_1102 () Bool (or call_always_from_to.call_always_since.ite call_always_from_to.call_always_since.call_after.afterA))
(define-fun .def_1111 () Bool (and .def_1102 .def_1110))
(define-fun .def_1113 () Bool (and .def_1111 .def_1112))
(define-fun .def_1115 () Bool (and .def_1113 .def_1114))
(define-fun .def_1117 () Bool (and .def_1115 .def_1116))
(define-fun .def_1119 () Bool (and .def_1117 .def_1118))
(define-fun .def_1121 () Bool (and .def_1119 .def_1120))
(define-fun .def_1123 () Bool (and .def_1121 .def_1122))
(define-fun .def_1125 () Bool (and .def_1123 .def_1124))
(define-fun .def_1127 () Bool (and .def_1125 .def_1126))
(define-fun .def_1130 () Bool (and .def_1127 .def_1129))
(define-fun .def_1132 () Bool (and .def_1130 .def_1131))
(define-fun .def_1135 () Bool (and .def_1132 .def_1134))
(define-fun .def_1138 () Bool (and .def_1135 .def_1137))
(define-fun .def_1149 () Bool (and .def_1138 .def_1148))
(define-fun .def_1151 () Bool (and .def_1149 .def_1150))
(define-fun .def_1153 () Bool (and .def_1151 .def_1152))
(define-fun .def_1155 () Bool (and .def_1153 .def_1154))
(define-fun .def_1157 () Bool (and .def_1155 .def_1156))
(define-fun .def_1159 () Bool (and .def_1157 .def_1158))
(define-fun .def_1161 () Bool (and .def_1159 .def_1160))
(define-fun .def_1163 () Bool (and .def_1161 .def_1162))
(define-fun .def_1165 () Bool (and .def_1163 .def_1164))
(define-fun .def_1167 () Bool (and .def_1165 .def_1166))
(define-fun .def_1169 () Bool (and .def_1167 .def_1168))
(define-fun .def_1098 () Bool (or call_always_from_to4.call_always_since.alwaysBsinceA call_always_from_to4.call_once_since.onceCsinceA))
(define-fun .def_1097 () Bool (not call_always_from_to4.call_after.afterA))
(define-fun .def_1099 () Bool (or .def_1097 .def_1098))
(define-fun .def_1100 () Bool (= call_always_from_to4.call_implies.AimpliesB .def_1099))
(define-fun .def_1095 () Bool (= call_always_from_to4.call_once_since.call_after.afterA call_always_from_to4.call_once_since.call_after.flby))
(define-fun .def_1091 () Bool (= call_always_from_to4.call_once_since.ite2 call_always_from_to4.call_once_since.onceCsinceA))
(define-fun .def_1088 () Bool (= call_always_from_to4.call_always_since.call_after.afterA call_always_from_to4.call_always_since.call_after.flby))
(define-fun .def_1084 () Bool (= call_always_from_to4.call_always_since.ite2 call_always_from_to4.call_always_since.alwaysBsinceA))
(define-fun .def_1081 () Bool (= call_always_from_to4.call_after.afterA call_always_from_to4.call_after.flby))
(define-fun .def_1077 () Bool (= call_always_from_to4._X_ call_always_from_to4.call_implies.AimpliesB))
(define-fun .def_1072 () Bool (or call_always_from_to3.call_always_since.alwaysBsinceA call_always_from_to3.call_once_since.onceCsinceA))
(define-fun .def_1071 () Bool (not call_always_from_to3.call_after.afterA))
(define-fun .def_1073 () Bool (or .def_1071 .def_1072))
(define-fun .def_1074 () Bool (= call_always_from_to3.call_implies.AimpliesB .def_1073))
(define-fun .def_1069 () Bool (= call_always_from_to3.call_once_since.call_after.afterA call_always_from_to3.call_once_since.call_after.flby))
(define-fun .def_1065 () Bool (= call_always_from_to3.call_once_since.ite2 call_always_from_to3.call_once_since.onceCsinceA))
(define-fun .def_1062 () Bool (= call_always_from_to3.call_always_since.call_after.afterA call_always_from_to3.call_always_since.call_after.flby))
(define-fun .def_1058 () Bool (= call_always_from_to3.call_always_since.ite2 call_always_from_to3.call_always_since.alwaysBsinceA))
(define-fun .def_1055 () Bool (= call_always_from_to3.call_after.afterA call_always_from_to3.call_after.flby))
(define-fun .def_1051 () Bool (= call_always_from_to3._X_ call_always_from_to3.call_implies.AimpliesB))
(define-fun .def_850 () Bool (not grant_access))
(define-fun .def_1047 () Bool (or .def_850 empty_section))
(define-fun .def_1048 () Bool (= call_implies5.AimpliesB .def_1047))
(define-fun .def_1045 () Bool (= call_Sofar.Sofar call_Sofar.flby))
(define-fun .def_1039 () Bool (not call_edge4._Y_))
(define-fun .def_926 () Bool (or param_on_A param_on_C))
(define-fun .def_1040 () Bool (or .def_926 .def_1039))
(define-fun .def_1042 () Bool (= .def_1040 call_implies4.AimpliesB))
(define-fun .def_1037 () Bool (= call_edge4._Y_ call_edge4.flby))
(define-fun .def_1030 () Bool (not call_edge3._Y_))
(define-fun .def_1031 () Bool (or param_on_B .def_1030))
(define-fun .def_1033 () Bool (= .def_1031 call_implies3.AimpliesB))
(define-fun .def_1028 () Bool (= call_edge3._Y_ call_edge3.flby))
(define-fun .def_1022 () Bool (not call_edge2._Y_))
(define-fun .def_1023 () Bool (or param2 .def_1022))
(define-fun .def_1024 () Bool (= call_implies2.AimpliesB .def_1023))
(define-fun .def_1018 () Bool (= call_edge2._Y_ call_edge2.flby))
(define-fun .def_1012 () Bool (not call_edge._Y_))
(define-fun .def_1013 () Bool (or param .def_1012))
(define-fun .def_1014 () Bool (= call_implies.AimpliesB .def_1013))
(define-fun .def_1008 () Bool (= call_edge._Y_ call_edge.flby))
(define-fun .def_1002 () Bool (or call_always_from_to2.call_always_since.alwaysBsinceA call_always_from_to2.call_once_since.onceCsinceA))
(define-fun .def_1001 () Bool (not call_always_from_to2.call_after.afterA))
(define-fun .def_1003 () Bool (or .def_1001 .def_1002))
(define-fun .def_1004 () Bool (= call_always_from_to2.call_implies.AimpliesB .def_1003))
(define-fun .def_999 () Bool (= call_always_from_to2.call_once_since.call_after.afterA call_always_from_to2.call_once_since.call_after.flby))
(define-fun .def_995 () Bool (= call_always_from_to2.call_once_since.ite2 call_always_from_to2.call_once_since.onceCsinceA))
(define-fun .def_992 () Bool (= call_always_from_to2.call_always_since.call_after.afterA call_always_from_to2.call_always_since.call_after.flby))
(define-fun .def_988 () Bool (= call_always_from_to2.call_always_since.ite2 call_always_from_to2.call_always_since.alwaysBsinceA))
(define-fun .def_985 () Bool (= call_always_from_to2.call_after.afterA call_always_from_to2.call_after.flby))
(define-fun .def_981 () Bool (= call_always_from_to2.call_implies.AimpliesB call_always_from_to2._X_))
(define-fun .def_975 () Bool (or call_always_from_to.call_always_since.alwaysBsinceA call_always_from_to.call_once_since.onceCsinceA))
(define-fun .def_974 () Bool (not call_always_from_to.call_after.afterA))
(define-fun .def_976 () Bool (or .def_974 .def_975))
(define-fun .def_977 () Bool (= call_always_from_to.call_implies.AimpliesB .def_976))
(define-fun .def_972 () Bool (= call_always_from_to.call_once_since.call_after.afterA call_always_from_to.call_once_since.call_after.flby))
(define-fun .def_968 () Bool (= call_always_from_to.call_once_since.ite2 call_always_from_to.call_once_since.onceCsinceA))
(define-fun .def_965 () Bool (= call_always_from_to.call_always_since.call_after.afterA call_always_from_to.call_always_since.call_after.flby))
(define-fun .def_961 () Bool (= call_always_from_to.call_always_since.ite2 call_always_from_to.call_always_since.alwaysBsinceA))
(define-fun .def_958 () Bool (= call_always_from_to.call_after.afterA call_always_from_to.call_after.flby))
(define-fun .def_954 () Bool (= call_always_from_to.call_implies.AimpliesB call_always_from_to._X_))
(define-fun .def_927 () Bool (not .def_926))
(define-fun .def_928 () Bool (and param_on_B .def_927))
(define-fun .def_950 () Bool (= .def_928 call__UMS_.only_on_B))
(define-fun .def_920 () Bool (or param_on_A param_on_B))
(define-fun .def_922 () Bool (or .def_920 param_on_C))
(define-fun .def_923 () Bool (not .def_922))
(define-fun .def_948 () Bool (= .def_923 call__UMS_.empty_section))
(define-fun .def_811 () Bool (not param_ack_BC))
(define-fun .def_945 () Bool (and .def_811 call__UMS_.only_on_B))
(define-fun .def_946 () Bool (= call__UMS_.do_BC .def_945))
(define-fun .def_835 () Bool (not param_ack_AB))
(define-fun .def_942 () Bool (and .def_835 call__UMS_.empty_section))
(define-fun .def_943 () Bool (= call__UMS_.do_AB .def_942))
(define-fun .def_939 () Bool (and param_ack_BC call__UMS_.only_on_B))
(define-fun .def_940 () Bool (= call__UMS_.grant_exit .def_939))
(define-fun .def_935 () Bool (and param_ack_AB call__UMS_.empty_section))
(define-fun .def_936 () Bool (= call__UMS_.grant_access .def_935))
(define-fun .def_932 () Bool (= env call_Sofar.Sofar))
(define-fun .def_929 () Bool (= only_on_B .def_928))
(define-fun .def_924 () Bool (= empty_section .def_923))
(define-fun .def_916 () Bool (= no_derail_BC call_always_from_to4._X_))
(define-fun .def_913 () Bool (= no_derail_AB call_always_from_to3._X_))
(define-fun .def_908 () Bool (and do_AB do_BC))
(define-fun .def_909 () Bool (not .def_908))
(define-fun .def_910 () Bool (= exclusive_req .def_909))
(define-fun .def_906 () Bool (= no_collision call_implies5.AimpliesB))
(define-fun .def_903 () Bool (= do_BC call__UMS_.do_BC))
(define-fun .def_900 () Bool (= do_AB call__UMS_.do_AB))
(define-fun .def_896 () Bool (= grant_exit call__UMS_.grant_exit))
(define-fun .def_892 () Bool (= call_always_from_to4.call_once_since.ite2 call_always_from_to4.call_once_since.ite))
(define-fun .def_893 () Bool (or grant_exit .def_892))
(define-fun .def_888 () Bool (= call_always_from_to4.call_always_since.ite2 call_always_from_to4.call_always_since.ite))
(define-fun .def_889 () Bool (or grant_exit .def_888))
(define-fun .def_885 () Bool (= call_always_from_to4.call_once_since.ite2 empty_section))
(define-fun .def_826 () Bool (not grant_exit))
(define-fun .def_886 () Bool (or .def_826 .def_885))
(define-fun .def_890 () Bool (and .def_886 .def_889))
(define-fun .def_894 () Bool (and .def_890 .def_893))
(define-fun .def_897 () Bool (and .def_894 .def_896))
(define-fun .def_880 () Bool (= grant_access call__UMS_.grant_access))
(define-fun .def_876 () Bool (= call_always_from_to3.call_once_since.ite2 call_always_from_to3.call_once_since.ite))
(define-fun .def_877 () Bool (or grant_access .def_876))
(define-fun .def_872 () Bool (= call_always_from_to3.call_always_since.ite2 call_always_from_to3.call_always_since.ite))
(define-fun .def_873 () Bool (or grant_access .def_872))
(define-fun .def_869 () Bool (= only_on_B call_always_from_to3.call_once_since.ite2))
(define-fun .def_870 () Bool (or .def_850 .def_869))
(define-fun .def_874 () Bool (and .def_870 .def_873))
(define-fun .def_878 () Bool (and .def_874 .def_877))
(define-fun .def_881 () Bool (and .def_878 .def_880))
(define-fun .def_859 () Bool (and no_collision exclusive_req))
(define-fun .def_861 () Bool (and .def_859 no_derail_AB))
(define-fun .def_863 () Bool (and .def_861 no_derail_BC))
(define-fun .def_856 () Bool (not env))
(define-fun .def_864 () Bool (or .def_856 .def_863))
(define-fun .def_865 () Bool (= _OK_ .def_864))
(define-fun .def_848 () Bool (= param_ack_AB call_always_from_to3.call_always_since.ite2))
(define-fun .def_851 () Bool (or .def_848 .def_850))
(define-fun .def_844 () Bool (= call_always_from_to.call_once_since.ite2 call_always_from_to.call_once_since.ite))
(define-fun .def_845 () Bool (or param_ack_AB .def_844))
(define-fun .def_840 () Bool (= do_BC call_always_from_to.call_once_since.ite2))
(define-fun .def_841 () Bool (or .def_835 .def_840))
(define-fun .def_834 () Bool (= call_always_from_to.call_always_since.ite2 param_ack_AB))
(define-fun .def_836 () Bool (or .def_834 .def_835))
(define-fun .def_831 () Bool (= call_always_from_to.call_always_since.ite2 call_always_from_to.call_always_since.ite))
(define-fun .def_833 () Bool (or .def_831 param_ack_AB))
(define-fun .def_837 () Bool (and .def_833 .def_836))
(define-fun .def_842 () Bool (and .def_837 .def_841))
(define-fun .def_846 () Bool (and .def_842 .def_845))
(define-fun .def_852 () Bool (and .def_846 .def_851))
(define-fun .def_824 () Bool (= param_ack_BC call_always_from_to4.call_always_since.ite2))
(define-fun .def_827 () Bool (or .def_824 .def_826))
(define-fun .def_820 () Bool (= call_always_from_to2.call_once_since.ite2 call_always_from_to2.call_once_since.ite))
(define-fun .def_821 () Bool (or param_ack_BC .def_820))
(define-fun .def_816 () Bool (= do_AB call_always_from_to2.call_once_since.ite2))
(define-fun .def_817 () Bool (or .def_811 .def_816))
(define-fun .def_810 () Bool (= call_always_from_to2.call_always_since.ite2 param_ack_BC))
(define-fun .def_812 () Bool (or .def_810 .def_811))
(define-fun .def_807 () Bool (= call_always_from_to2.call_always_since.ite2 call_always_from_to2.call_always_since.ite))
(define-fun .def_809 () Bool (or .def_807 param_ack_BC))
(define-fun .def_813 () Bool (and .def_809 .def_812))
(define-fun .def_818 () Bool (and .def_813 .def_817))
(define-fun .def_822 () Bool (and .def_818 .def_821))
(define-fun .def_828 () Bool (and .def_822 .def_827))
(define-fun .def_853 () Bool (and .def_828 .def_852))
(define-fun .def_866 () Bool (and .def_853 .def_865))
(define-fun .def_882 () Bool (and .def_866 .def_881))
(define-fun .def_898 () Bool (and .def_882 .def_897))
(define-fun .def_901 () Bool (and .def_898 .def_900))
(define-fun .def_904 () Bool (and .def_901 .def_903))
(define-fun .def_907 () Bool (and .def_904 .def_906))
(define-fun .def_911 () Bool (and .def_907 .def_910))
(define-fun .def_914 () Bool (and .def_911 .def_913))
(define-fun .def_917 () Bool (and .def_914 .def_916))
(define-fun .def_925 () Bool (and .def_917 .def_924))
(define-fun .def_930 () Bool (and .def_925 .def_929))
(define-fun .def_933 () Bool (and .def_930 .def_932))
(define-fun .def_937 () Bool (and .def_933 .def_936))
(define-fun .def_941 () Bool (and .def_937 .def_940))
(define-fun .def_944 () Bool (and .def_941 .def_943))
(define-fun .def_947 () Bool (and .def_944 .def_946))
(define-fun .def_949 () Bool (and .def_947 .def_948))
(define-fun .def_951 () Bool (and .def_949 .def_950))
(define-fun .def_955 () Bool (and .def_951 .def_954))
(define-fun .def_959 () Bool (and .def_955 .def_958))
(define-fun .def_962 () Bool (and .def_959 .def_961))
(define-fun .def_966 () Bool (and .def_962 .def_965))
(define-fun .def_969 () Bool (and .def_966 .def_968))
(define-fun .def_973 () Bool (and .def_969 .def_972))
(define-fun .def_978 () Bool (and .def_973 .def_977))
(define-fun .def_982 () Bool (and .def_978 .def_981))
(define-fun .def_986 () Bool (and .def_982 .def_985))
(define-fun .def_989 () Bool (and .def_986 .def_988))
(define-fun .def_993 () Bool (and .def_989 .def_992))
(define-fun .def_996 () Bool (and .def_993 .def_995))
(define-fun .def_1000 () Bool (and .def_996 .def_999))
(define-fun .def_1005 () Bool (and .def_1000 .def_1004))
(define-fun .def_1009 () Bool (and .def_1005 .def_1008))
(define-fun .def_1015 () Bool (and .def_1009 .def_1014))
(define-fun .def_1019 () Bool (and .def_1015 .def_1018))
(define-fun .def_1025 () Bool (and .def_1019 .def_1024))
(define-fun .def_1029 () Bool (and .def_1025 .def_1028))
(define-fun .def_1034 () Bool (and .def_1029 .def_1033))
(define-fun .def_1038 () Bool (and .def_1034 .def_1037))
(define-fun .def_1043 () Bool (and .def_1038 .def_1042))
(define-fun .def_1046 () Bool (and .def_1043 .def_1045))
(define-fun .def_1049 () Bool (and .def_1046 .def_1048))
(define-fun .def_1052 () Bool (and .def_1049 .def_1051))
(define-fun .def_1056 () Bool (and .def_1052 .def_1055))
(define-fun .def_1059 () Bool (and .def_1056 .def_1058))
(define-fun .def_1063 () Bool (and .def_1059 .def_1062))
(define-fun .def_1066 () Bool (and .def_1063 .def_1065))
(define-fun .def_1070 () Bool (and .def_1066 .def_1069))
(define-fun .def_1075 () Bool (and .def_1070 .def_1074))
(define-fun .def_1078 () Bool (and .def_1075 .def_1077))
(define-fun .def_1082 () Bool (and .def_1078 .def_1081))
(define-fun .def_1085 () Bool (and .def_1082 .def_1084))
(define-fun .def_1089 () Bool (and .def_1085 .def_1088))
(define-fun .def_1092 () Bool (and .def_1089 .def_1091))
(define-fun .def_1096 () Bool (and .def_1092 .def_1095))
(define-fun .def_1101 () Bool (and .def_1096 .def_1100))
(define-fun .def_1170 () Bool (and .def_1101 .def_1169))
(assert .def_1170)
